c description: Random 5-CNF over 15 variables and 15 clauses
c generator: CNFgen (0.9.0)
c copyright: (C) 2012-2020 Massimo Lauria <massimo.lauria@uniroma1.it>
c url: https://massimolauria.net/cnfgen
c
p cnf 15 15
1 2 -5 -6 11 0
3 5 7 -9 -13 0
-1 -7 -8 11 -15 0
1 4 -7 -12 14 0
-2 3 -5 7 9 0
3 -5 -10 11 15 0
-1 3 7 -9 -13 0
-5 -6 10 -13 15 0
2 3 6 -7 -10 0
6 8 -11 -12 -13 0
-1 -2 3 12 -15 0
-2 -3 4 -5 13 0
4 5 6 -7 15 0
1 -4 -8 -10 -11 0
-1 -2 7 -12 13 0